Minimize
obj1:+19 x(1) -17 x(2) +0 x(3) +1 x(4) -17 x(5) +17 x(6) +16 x(7) -3 x(8) +12 x(9) -14 x(10) +5 x(11) -10 x(12) -2 x(13) +14 x(14) -12 x(15) -8 x(16) -1 x(17) -7 x(18) +12 x(19) +20 x(20)
Subject To
c1:+13 x(1) +12 x(2) +11 x(3) +17 x(4) +15 x(5) +17 x(6) +19 x(7) +15 x(8) +13 x(9) +2 x(10) +5 x(11) +13 x(12) +18 x(13) +20 x(14) +3 x(15) +11 x(16) +20 x(17) +13 x(18) +4 x(19) +19 x(20)  <=  70
c2:+5 x(1) +17 x(2) +20 x(3) +14 x(4) +18 x(5) +8 x(6) +10 x(7) +1 x(8) +8 x(9) +10 x(10) +17 x(11) +13 x(12) +1 x(13) +10 x(14) +13 x(15) +7 x(16) +19 x(17) +16 x(18) +17 x(19) +16 x(20)  <=  80
c3:+17 x(1) +9 x(2) +15 x(3) +5 x(4) +7 x(5) +2 x(6) +5 x(7) +17 x(8) +18 x(9) +1 x(10) +18 x(11) +7 x(12) +14 x(13) +16 x(14) +6 x(15) +17 x(16) +9 x(17) +15 x(18) +4 x(19) +17 x(20)  <=  90
c4:+20 x(1) +20 x(2) +7 x(3) +7 x(4) +14 x(5) +12 x(6) +8 x(7) +3 x(8) +16 x(9) +19 x(10) +20 x(11) +17 x(12) +20 x(13) +15 x(14) +7 x(15) +17 x(16) +1 x(17) +3 x(18) +11 x(19) +12 x(20)  <=  55
c5:+17 x(1) +2 x(2) +6 x(3) +3 x(4) +20 x(5) +19 x(6) +15 x(7) +10 x(8) +10 x(9) +13 x(10) +10 x(11) +20 x(12) +6 x(13) +17 x(14) +9 x(15) +12 x(16) +11 x(17) +17 x(18) +20 x(19) +16 x(20)  <=  91
c6:+11 x(1) +7 x(2) +18 x(3) +14 x(4) +2 x(5) +4 x(6) +12 x(7) +6 x(8) +17 x(9) +1 x(10) +5 x(11) +20 x(12) +3 x(13) +4 x(14) +9 x(15) +6 x(16) +5 x(17) +1 x(18) +8 x(19) +7 x(20)  <=  92
c7:+6 x(1) +11 x(2) +19 x(3) +12 x(4) +12 x(5) +9 x(6) +16 x(7) +8 x(8) +18 x(9) +1 x(10) +5 x(11) +3 x(12) +14 x(13) +10 x(14) +8 x(15) +14 x(16) +5 x(17) +9 x(18) +1 x(19) +5 x(20)  <=  68
c8:+15 x(1) +2 x(2) +13 x(3) +4 x(4) +9 x(5) +15 x(6) +20 x(7) +14 x(8) +9 x(9) +5 x(10) +11 x(11) +5 x(12) +19 x(13) +13 x(14) +13 x(15) +5 x(16) +7 x(17) +15 x(18) +5 x(19) +7 x(20)  <=  71
c9:+5 x(1) +15 x(2) +6 x(3) +3 x(4) +7 x(5) +1 x(6) +20 x(7) +4 x(8) +7 x(9) +10 x(10) +16 x(11) +1 x(12) +13 x(13) +19 x(14) +4 x(15) +10 x(16) +2 x(17) +16 x(18) +8 x(19) +12 x(20)  <=  79
c10:+20 x(1) +12 x(2) +2 x(3) +10 x(4) +6 x(5) +19 x(6) +11 x(7) +6 x(8) +12 x(9) +3 x(10) +7 x(11) +13 x(12) +18 x(13) +17 x(14) +4 x(15) +8 x(16) +15 x(17) +8 x(18) +7 x(19) +17 x(20)  <=  85
c11:+13 x(1) +11 x(2) +17 x(3) +19 x(4) +16 x(5) +16 x(6) +20 x(7) +4 x(8) +19 x(9) +1 x(10) +10 x(11) +3 x(12) +4 x(13) +18 x(14) +2 x(15) +11 x(16) +15 x(17) +15 x(18) +5 x(19) +6 x(20)  <=  87
c12:+13 x(1) +17 x(2) +12 x(3) +12 x(4) +20 x(5) +12 x(6) +3 x(7) +4 x(8) +15 x(9) +15 x(10) +13 x(11) +9 x(12) +16 x(13) +12 x(14) +7 x(15) +20 x(16) +11 x(17) +18 x(18) +19 x(19) +9 x(20)  <=  88
c13:+4 x(1) +18 x(2) +19 x(3) +1 x(4) +4 x(5) +4 x(6) +2 x(7) +7 x(8) +8 x(9) +8 x(10) +19 x(11) +18 x(12) +7 x(13) +12 x(14) +16 x(15) +16 x(16) +7 x(17) +5 x(18) +14 x(19) +18 x(20)  <=  69
c14:+2 x(1) +16 x(2) +2 x(3) +2 x(4) +16 x(5) +10 x(6) +7 x(7) +18 x(8) +15 x(9) +16 x(10) +4 x(11) +11 x(12) +9 x(13) +18 x(14) +5 x(15) +20 x(16) +17 x(17) +3 x(18) +20 x(19) +13 x(20)  <=  71
c15:+6 x(1) +7 x(2) +12 x(3) +17 x(4) +4 x(5) +11 x(6) +12 x(7) +10 x(8) +20 x(9) +9 x(10) +15 x(11) +8 x(12) +4 x(13) +1 x(14) +15 x(15) +5 x(16) +12 x(17) +5 x(18) +9 x(19) +20 x(20)  <=  98
c16:+18 x(1) +10 x(2) +6 x(3) +10 x(4) +20 x(5) +20 x(6) +11 x(7) +9 x(8) +11 x(9) +9 x(10) +12 x(11) +5 x(12) +17 x(13) +18 x(14) +14 x(15) +11 x(16) +20 x(17) +8 x(18) +19 x(19) +5 x(20)  <=  79
c17:+19 x(1) +16 x(2) +17 x(3) +8 x(4) +17 x(5) +18 x(6) +19 x(7) +4 x(8) +11 x(9) +1 x(10) +9 x(11) +9 x(12) +13 x(13) +9 x(14) +17 x(15) +2 x(16) +18 x(17) +6 x(18) +1 x(19) +17 x(20)  <=  93
c18:+14 x(1) +3 x(2) +4 x(3) +16 x(4) +9 x(5) +20 x(6) +11 x(7) +20 x(8) +7 x(9) +1 x(10) +18 x(11) +20 x(12) +15 x(13) +1 x(14) +17 x(15) +16 x(16) +8 x(17) +19 x(18) +13 x(19) +14 x(20)  <=  64
c19:+15 x(1) +3 x(2) +9 x(3) +8 x(4) +15 x(5) +14 x(6) +9 x(7) +9 x(8) +2 x(9) +2 x(10) +8 x(11) +3 x(12) +17 x(13) +15 x(14) +6 x(15) +13 x(16) +11 x(17) +2 x(18) +17 x(19) +5 x(20)  <=  81
c20:+5 x(1) +6 x(2) +8 x(3) +11 x(4) +10 x(5) +9 x(6) +11 x(7) +17 x(8) +4 x(9) +12 x(10) +4 x(11) +10 x(12) +2 x(13) +4 x(14) +7 x(15) +18 x(16) +7 x(17) +12 x(18) +5 x(19) +10 x(20)  <=  80
obj2:-14 x(1) -11 x(2) +8 x(3) -5 x(4) +19 x(5) +19 x(6) +6 x(7) +15 x(8) -4 x(9) +5 x(10) +20 x(11) +2 x(12) +18 x(13) +9 x(14) -1 x(15) +6 x(16) +16 x(17) -12 x(18) -4 x(19) +20 x(20)  <=  0
Binaries
x(1) x(2) x(3) x(4) x(5) x(6) x(7) x(8) x(9) x(10) x(11) x(12) x(13) x(14) x(15) x(16) x(17) x(18) x(19) x(20)
End
